
  22   10
  10   10   10   10   10   10   10   10   10   10

   0   0   0   0   0   0   0   0   0   0   0   2 2 3 
   1  10  10  10  10  10  10  10  10  10  10   3 10 7 4 
   1  10  10  10  10  10  10  10  10  10  10   4 10 9 7 6 
   3  10  10  10  10  10  10  10  10  10  10   1 5 
   1  10  10  10  10  10  10  10  10  10  10   2 12 9 
   5  10  10  10  10  10  10  10  10  10  10   2 12 8 
  10  10  10  10  10  10  10  10  10  10  10   1 8 
   8  10  10  10  10  10  10  10  10  10  10   2 15 11 
   8  10  10  10  10  10  10  10  10  10  10   2 15 11 
   7  10  10  10  10  10  10  10  10  10  10   2 12 11 
   3  10  10  10  10  10  10  10  10  10  10   2 14 13 
   8  10  10  10  10  10  10  10  10  10  10   2 14 13 
   8  10  10  10  10  10  10  10  10  10  10   1 16 
  10  10  10  10  10  10  10  10  10  10  10   1 16 
   6  10  10  10  10  10  10  10  10  10  10   1 16 
   9  10  10  10  10  10  10  10  10  10  10   2 19 17 
   8  10  10  10  10  10  10  10  10  10  10   2 20 18 
  10  10  10  10  10  10  10  10  10  10  10   1 21 
   9  10  10  10  10  10  10  10  10  10  10   1 20 
   6  10  10  10  10  10  10  10  10  10  10   1 22
   2  10  10  10  10  10  10  10  10  10  10   1 22
   0   0   0   0   0   0   0   0   0   0   0   0 
